
 cars = {1, 2};
 
points = {1, 2, 3, 4};
 
 
 StartDateCar = {
 <1, 3, 0>,
 <2, 1, 5>
 };
 

 //int shipmentId; 
 //int startShipmentTime; 
 //int stratShipmentPoint; 
 //int shipmentDuration; 
 //int finishShipmentPoint; 

 Shipments = {
 <1, 25, 1, 4, 2>,
 <2, 15, 3, 2, 4>,
 <3, 40, 2, 1, 4>
 };
 
 emptyTrainDistanceMatrix = {
 <1,1,0>,<1,2,10>, <1,3, 6>, <1,4, 19>,
 <2,1,8>,<2,2,0>, <2,3,15>,<2,4,2>,
 <3,1,4>,<3,2,18>,<3,3,0>,<3,4,6>,
  <4,1,17>,<4,2,5>,<4,3,3>,<4,4,0>
 };